NAME          ClpDefau  FREE
ROWS
 N  OBJROW
 L  ZMUNI1_PCT
 L  ZMUNI2_PCT
 L  ZMUNI3_PCT
 L  ZMUNI4_PCT
 L  ZMUNI5_PCT
 L  ZMUNI6_PCT
 L  ZMUNI7_PCT
 L  ZMUNI8_PCT
 L  ZMUNI9_PCT
COLUMNS
    QMUNI1 OBJROW 1.          
    QMUNI1 ZMUNI1_PCT 29934.8831  
    QMUNI1 ZMUNI2_PCT 1980.4001   
    QMUNI1 ZMUNI3_PCT 4449.2721   
    QMUNI1 ZMUNI4_PCT 3248.5962   
    QMUNI1 ZMUNI5_PCT  -185.0128  
    QMUNI1 ZMUNI6_PCT 84.1141     
    QMUNI1 ZMUNI7_PCT 2405.9296   
    QMUNI1 ZMUNI8_PCT 1805.1148   
    QMUNI1 ZMUNI9_PCT 951.3855    
    QMUNI2 OBJROW 1.          
    QMUNI2 ZMUNI1_PCT 1971.4355   
    QMUNI2 ZMUNI2_PCT 36143.3029  
    QMUNI2 ZMUNI3_PCT 2816.9632   
    QMUNI2 ZMUNI4_PCT 2915.1917   
    QMUNI2 ZMUNI5_PCT 161.3617    
    QMUNI2 ZMUNI6_PCT 253.8682    
    QMUNI2 ZMUNI7_PCT 1661.6821   
    QMUNI2 ZMUNI8_PCT 1729.5838   
    QMUNI2 ZMUNI9_PCT 1745.9869   
    QMUNI3 OBJROW 1.          
    QMUNI3 ZMUNI1_PCT 4280.8532   
    QMUNI3 ZMUNI2_PCT 2846.5271   
    QMUNI3 ZMUNI3_PCT 31743.8125  
    QMUNI3 ZMUNI4_PCT 5216.7893   
    QMUNI3 ZMUNI5_PCT  -221.8246  
    QMUNI3 ZMUNI6_PCT  -12.207    
    QMUNI3 ZMUNI7_PCT 1897.4304   
    QMUNI3 ZMUNI8_PCT 1683.4259   
    QMUNI3 ZMUNI9_PCT 1119.6137   
    QMUNI4 OBJROW 1.          
    QMUNI4 ZMUNI1_PCT 3502.4642   
    QMUNI4 ZMUNI2_PCT 3303.1463   
    QMUNI4 ZMUNI3_PCT 5755.2337   
    QMUNI4 ZMUNI4_PCT 110215.7593 
    QMUNI4 ZMUNI5_PCT 134.2774    
    QMUNI4 ZMUNI6_PCT 273.3231    
    QMUNI4 ZMUNI7_PCT 1914.2151   
    QMUNI4 ZMUNI8_PCT 1682.663    
    QMUNI4 ZMUNI9_PCT 1234.0546   
    QMUNI5 OBJROW 1.          
    QMUNI5 ZMUNI1_PCT 427.4368    
    QMUNI5 ZMUNI2_PCT 347.5189    
    QMUNI5 ZMUNI3_PCT 409.317     
    QMUNI5 ZMUNI4_PCT 343.5135    
    QMUNI5 ZMUNI5_PCT 40154.0757  
    QMUNI5 ZMUNI6_PCT 3009.224    
    QMUNI5 ZMUNI7_PCT 879.6692    
    QMUNI5 ZMUNI8_PCT 674.82      
    QMUNI5 ZMUNI9_PCT 676.7273    
    QMUNI6 OBJROW 1.          
    QMUNI6 ZMUNI1_PCT 282.8598    
    QMUNI6 ZMUNI2_PCT 114.8224    
    QMUNI6 ZMUNI3_PCT 223.1598    
    QMUNI6 ZMUNI4_PCT 181.9611    
    QMUNI6 ZMUNI5_PCT 2472.1146   
    QMUNI6 ZMUNI6_PCT 34528.9231  
    QMUNI6 ZMUNI7_PCT 278.4729    
    QMUNI6 ZMUNI8_PCT 85.4492     
    QMUNI6 ZMUNI9_PCT 1.9074000001
    QMUNI7 OBJROW 1.          
    QMUNI7 ZMUNI1_PCT 1497.6501   
    QMUNI7 ZMUNI2_PCT 939.5599    
    QMUNI7 ZMUNI3_PCT 1351.3565   
    QMUNI7 ZMUNI4_PCT 1038.5514   
    QMUNI7 ZMUNI5_PCT  -193.2144  
    QMUNI7 ZMUNI6_PCT 97.0841     
    QMUNI7 ZMUNI7_PCT 40196.991   
    QMUNI7 ZMUNI8_PCT 2804.184    
    QMUNI7 ZMUNI9_PCT 1130.2948   
    QMUNI8 OBJROW 1.          
    QMUNI8 ZMUNI1_PCT 1162.1475   
    QMUNI8 ZMUNI2_PCT 1018.3334   
    QMUNI8 ZMUNI3_PCT 1202.3925   
    QMUNI8 ZMUNI4_PCT 946.8079    
    QMUNI8 ZMUNI5_PCT  -238.2278  
    QMUNI8 ZMUNI6_PCT  -61.6073   
    QMUNI8 ZMUNI7_PCT 2957.9163   
    QMUNI8 ZMUNI8_PCT 33500.2899  
    QMUNI8 ZMUNI9_PCT 1540.3748   
    QMUNI9 OBJROW 1.          
    QMUNI9 ZMUNI1_PCT 547.409     
    QMUNI9 ZMUNI2_PCT 902.3666    
    QMUNI9 ZMUNI3_PCT 667.3812    
    QMUNI9 ZMUNI4_PCT 597.7631    
    QMUNI9 ZMUNI5_PCT  -219.9173  
    QMUNI9 ZMUNI6_PCT  -144.3862  
    QMUNI9 ZMUNI7_PCT 643.5394    
    QMUNI9 ZMUNI8_PCT 1216.507    
    QMUNI9 ZMUNI9_PCT 33836.7462  
RHS
    RHS ZMUNI1_PCT  -1.41159504
    RHS ZMUNI2_PCT  -1.53934555
    RHS ZMUNI3_PCT  -1.70243334
    RHS ZMUNI4_PCT  -0.57563011
    RHS ZMUNI5_PCT  -0.65031473
    RHS ZMUNI6_PCT  -0.60847048
    RHS ZMUNI7_PCT  -3.85803782
    RHS ZMUNI8_PCT  -2.81254362
    RHS ZMUNI9_PCT  -2.448445  
BOUNDS
 LO BOUND QMUNI1 -0.000684863
 UP BOUND QMUNI1      1.1e+10
 LO BOUND QMUNI2 -0.000435816
 UP BOUND QMUNI2      1.1e+10
 LO BOUND QMUNI3 -0.000492709
 UP BOUND QMUNI3      1.1e+10
 LO BOUND QMUNI4 -0.000213138
 UP BOUND QMUNI4      1.1e+10
 LO BOUND QMUNI5 -0.000236121
 UP BOUND QMUNI5      1.1e+10
 LO BOUND QMUNI6 -0.000410673
 UP BOUND QMUNI6      1.1e+10
 LO BOUND QMUNI7  -1.95228e-5
 UP BOUND QMUNI7      1.1e+10
 LO BOUND QMUNI8 -0.000152238
 UP BOUND QMUNI8      1.1e+10
 LO BOUND QMUNI9 -0.000107274
 UP BOUND QMUNI9      1.1e+10
ENDATA
